block_table_value:
[[1 1 1 1 1 1 1 1]
 [1 1 0 0 0 0 0 0]
 [1 0 1 0 0 0 0 0]
 [1 0 0 1 0 0 0 0]
 [1 0 0 0 1 0 0 0]
 [1 0 0 0 0 1 0 0]
 [1 0 0 0 0 0 1 0]
 [1 0 0 0 0 0 0 1]]
Set parameter Username
Set parameter LicenseID to value 2603695
Academic license - for non-commercial use only - expires 2025-12-26
Gurobi Optimizer version 11.0.3 build v11.0.3rc0 (linux64 - "Debian GNU/Linux 12 (bookworm)")

CPU model: Intel(R) Xeon(R) Gold 6252 CPU @ 2.10GHz, instruction set [SSE2|AVX|AVX2|AVX512]
Thread count: 48 physical cores, 96 logical processors, using up to 32 threads

Optimize a model with 310 rows, 289 columns and 1024 nonzeros
Model fingerprint: 0x8d49d2c9
Variable types: 0 continuous, 289 integer (112 binary)
Coefficient statistics:
  Matrix range     [1e+00, 2e+00]
  Objective range  [1e+00, 1e+00]
  Bounds range     [1e+00, 1e+00]
  RHS range        [1e+00, 2e+00]
Found heuristic solution: objective 15.0000000
Presolve removed 109 rows and 97 columns
Presolve time: 0.00s
Presolved: 201 rows, 192 columns, 806 nonzeros
Variable types: 0 continuous, 192 integer (175 binary)

Root relaxation: objective 3.500000e+00, 345 iterations, 0.01 seconds (0.00 work units)

    Nodes    |    Current Node    |     Objective Bounds      |     Work
 Expl Unexpl |  Obj  Depth IntInf | Incumbent    BestBd   Gap | It/Node Time

     0     0    3.50000    0  155   15.00000    3.50000  76.7%     -    0s
H    0     0                      11.0000000    3.50000  68.2%     -    0s
H    0     0                      10.0000000    4.00000  60.0%     -    0s
     0     0    4.00000    0  146   10.00000    4.00000  60.0%     -    0s
     0     0    4.68249    0  107   10.00000    4.68249  53.2%     -    0s
     0     0    5.00000    0   82   10.00000    5.00000  50.0%     -    0s
     0     0    5.88889    0   82   10.00000    5.88889  41.1%     -    0s
     0     0    5.94872    0   82   10.00000    5.94872  40.5%     -    0s
     0     0    5.94872    0   83   10.00000    5.94872  40.5%     -    0s
     0     0    8.28676    0   40   10.00000    8.28676  17.1%     -    0s
     0     0    9.00000    0   18   10.00000    9.00000  10.0%     -    0s
     0     0    9.00000    0   20   10.00000    9.00000  10.0%     -    0s
     0     0 infeasible    0        10.00000   10.00000  0.00%     -    0s

Cutting planes:
  Cover: 4
  Clique: 1
  MIR: 17
  Zero half: 1
  RLT: 6
  Relax-and-lift: 1

Explored 1 nodes (1659 simplex iterations) in 0.10 seconds (0.06 work units)
Thread count was 32 (of 96 available processors)

Solution count 3: 10 11 15 

Optimal solution found (tolerance 1.00e-04)
Best objective 1.000000000000e+01, best bound 1.000000000000e+01, gap 0.0000%
LP solve time: 0.10138225555419922 s
Optimal value: 10.0
LP result:
x_0_1_0: 1.0
x_0_1_1: 0.0
x_0_1_2: 0.0
x_0_1_3: 0.0
x_0_1_4: 0.0
x_0_1_5: 0.0
x_0_1_6: 0.0
x_0_1_7: 0.0
x_0_2_0: 0.0
x_0_2_1: 0.0
x_0_2_2: 1.0
x_0_2_3: 0.0
x_0_2_4: 0.0
x_0_2_5: 0.0
x_0_2_6: 0.0
x_0_2_7: 0.0
x_0_3_0: 0.0
x_0_3_1: 0.0
x_0_3_2: 0.0
x_0_3_3: 1.0
x_0_3_4: 0.0
x_0_3_5: 0.0
x_0_3_6: 0.0
x_0_3_7: 0.0
x_0_4_0: 0.0
x_0_4_1: 0.0
x_0_4_2: 0.0
x_0_4_3: 1.0
x_0_4_4: 0.0
x_0_4_5: 0.0
x_0_4_6: 0.0
x_0_4_7: 0.0
x_0_5_0: 0.0
x_0_5_1: 1.0
x_0_5_2: 0.0
x_0_5_3: 0.0
x_0_5_4: 0.0
x_0_5_5: 0.0
x_0_5_6: 0.0
x_0_5_7: 0.0
x_0_6_0: 0.0
x_0_6_1: 0.0
x_0_6_2: 1.0
x_0_6_3: 0.0
x_0_6_4: 0.0
x_0_6_5: 0.0
x_0_6_6: 0.0
x_0_6_7: 0.0
x_0_7_0: 0.0
x_0_7_1: 1.0
x_0_7_2: 0.0
x_0_7_3: 0.0
x_0_7_4: 0.0
x_0_7_5: 0.0
x_0_7_6: 0.0
x_0_7_7: 0.0
x_1_0_0: 0.0
x_1_0_1: 0.0
x_1_0_2: 0.0
x_1_0_3: 0.0
x_1_0_4: 0.0
x_1_0_5: 1.0
x_1_0_6: 0.0
x_1_0_7: 0.0
x_2_0_0: 0.0
x_2_0_1: 0.0
x_2_0_2: 0.0
x_2_0_3: 0.0
x_2_0_4: 0.0
x_2_0_5: 0.0
x_2_0_6: 1.0
x_2_0_7: 0.0
x_3_0_0: 0.0
x_3_0_1: 0.0
x_3_0_2: 0.0
x_3_0_3: 0.0
x_3_0_4: 0.0
x_3_0_5: 1.0
x_3_0_6: 0.0
x_3_0_7: 0.0
x_4_0_0: 1.0
x_4_0_1: 0.0
x_4_0_2: 0.0
x_4_0_3: 0.0
x_4_0_4: 0.0
x_4_0_5: 0.0
x_4_0_6: 0.0
x_4_0_7: 0.0
x_5_0_0: 0.0
x_5_0_1: 0.0
x_5_0_2: 0.0
x_5_0_3: 0.0
x_5_0_4: 0.0
x_5_0_5: 0.0
x_5_0_6: 0.0
x_5_0_7: 1.0
x_6_0_0: 0.0
x_6_0_1: 0.0
x_6_0_2: 0.0
x_6_0_3: 0.0
x_6_0_4: 0.0
x_6_0_5: 0.0
x_6_0_6: 1.0
x_6_0_7: 0.0
x_7_0_0: 0.0
x_7_0_1: 0.0
x_7_0_2: 0.0
x_7_0_3: 0.0
x_7_0_4: 0.0
x_7_0_5: 0.0
x_7_0_6: 0.0
x_7_0_7: 1.0
a_0_0: 1.0
a_0_1: 0.0
a_0_2: 0.0
a_0_3: 0.0
a_0_4: 1.0
a_0_5: 0.0
a_0_6: 0.0
a_0_7: 0.0
a_1_0: 1.0
a_1_1: 1.0
a_1_2: 0.0
a_1_3: 0.0
a_1_4: 0.0
a_1_5: 0.0
a_1_6: 0.0
a_1_7: 0.0
a_2_0: 1.0
a_2_1: 0.0
a_2_2: 1.0
a_2_3: 1.0
a_2_4: 0.0
a_2_5: 0.0
a_2_6: 0.0
a_2_7: 0.0
a_3_0: 1.0
a_3_1: 0.0
a_3_2: 0.0
a_3_3: 1.0
a_3_4: 0.0
a_3_5: 0.0
a_3_6: 1.0
a_3_7: 0.0
a_4_0: 0.0
a_4_1: 0.0
a_4_2: 0.0
a_4_3: 0.0
a_4_4: 1.0
a_4_5: 0.0
a_4_6: 0.0
a_4_7: 1.0
a_5_0: 0.0
a_5_1: 1.0
a_5_2: 0.0
a_5_3: 1.0
a_5_4: 0.0
a_5_5: 1.0
a_5_6: 0.0
a_5_7: 0.0
a_6_0: 0.0
a_6_1: 0.0
a_6_2: 1.0
a_6_3: 0.0
a_6_4: 0.0
a_6_5: 0.0
a_6_6: 1.0
a_6_7: 0.0
a_7_0: 0.0
a_7_1: 0.0
a_7_2: 0.0
a_7_3: 0.0
a_7_4: 0.0
a_7_5: 1.0
a_7_6: 0.0
a_7_7: 1.0
b_0_0: 1.0
b_0_1: 1.0
b_0_2: 0.0
b_0_3: 0.0
b_0_4: 0.0
b_0_5: 0.0
b_0_6: 0.0
b_0_7: 0.0
b_1_0: 0.0
b_1_1: 1.0
b_1_2: 0.0
b_1_3: 0.0
b_1_4: 0.0
b_1_5: 1.0
b_1_6: 0.0
b_1_7: 1.0
b_2_0: 0.0
b_2_1: 0.0
b_2_2: 1.0
b_2_3: 0.0
b_2_4: 0.0
b_2_5: 0.0
b_2_6: 1.0
b_2_7: 0.0
b_3_0: 0.0
b_3_1: 0.0
b_3_2: 0.0
b_3_3: 1.0
b_3_4: 1.0
b_3_5: 0.0
b_3_6: 0.0
b_3_7: 0.0
b_4_0: 0.0
b_4_1: 0.0
b_4_2: 0.0
b_4_3: 0.0
b_4_4: 1.0
b_4_5: 0.0
b_4_6: 0.0
b_4_7: 0.0
b_5_0: 1.0
b_5_1: 0.0
b_5_2: 0.0
b_5_3: 0.0
b_5_4: 0.0
b_5_5: 1.0
b_5_6: 0.0
b_5_7: 0.0
b_6_0: 1.0
b_6_1: 0.0
b_6_2: 0.0
b_6_3: 0.0
b_6_4: 0.0
b_6_5: 0.0
b_6_6: 1.0
b_6_7: 0.0
b_7_0: 1.0
b_7_1: 0.0
b_7_2: 0.0
b_7_3: 0.0
b_7_4: 0.0
b_7_5: 0.0
b_7_6: 0.0
b_7_7: 1.0
A_0: 1.0
B_0: 1.0
C_0: 3.0
D_0: 3.0
Cin_0: 6.0
Cout_0: 10.0
A_1: 1.0
B_1: 2.0
C_1: 1.0
D_1: 1.0
Cin_1: 6.0
Cout_1: 4.0
A_2: 2.0
B_2: 1.0
C_2: 1.0
D_2: 0.0
Cin_2: 5.0
Cout_2: 3.0
A_3: 2.0
B_3: 1.0
C_3: 2.0
D_3: 0.0
Cin_3: 6.0
Cout_3: 4.0
A_4: 1.0
B_4: 0.0
C_4: 1.0
D_4: 1.0
Cin_4: 2.0
Cout_4: 4.0
A_5: 2.0
B_5: 1.0
C_5: 1.0
D_5: 1.0
Cin_5: 5.0
Cout_5: 5.0
A_6: 1.0
B_6: 1.0
C_6: 1.0
D_6: 1.0
Cin_6: 4.0
Cout_6: 4.0
A_7: 1.0
B_7: 1.0
C_7: 1.0
D_7: 1.0
Cin_7: 4.0
Cout_7: 4.0
Comm_Volume: 10.0
Allocation Matrix:
0  0  2  3  3  1  2  1  
5  1  /  /  /  /  /  /  
6  /  2  /  /  /  /  /  
5  /  /  3  /  /  /  /  
0  /  /  /  4  /  /  /  
7  /  /  /  /  5  /  /  
6  /  /  /  /  /  6  /  
7  /  /  /  /  /  /  7  
